pr8_2
0 45 33 30 39 145 79 111 102 138 28 13 21 27 43 118 108 56 23 123 9 115 31 125 14 74 17 147 139 144 10 82 70 64 130 20 73 50 38 140 29 51 61 46 6 117 41 26 3 57 105 129 63 99 65 91 94 100 7 53 97 149 104 76 77 59 128 49 80 22 103 116 83 25 135 60 86 48 141 81 90 88 112 69 143 19 110 1 37 96 67 11 122 75 72 84 92 42 124 126 54 148 131 93 113 8 24 137 95 55 40 47 15 114 134 58 119 71 16 2 18 120 132 52 44 98 89 78 34 12 127 107 106 68 109 133 66 101 62 85 32 146 87 121 142 36 136 35 4 0